# Objective value = 1.9922934036899821e+03
x[0] 0
x[1] 0
x[2] 1
x[3] 1
x[4] 1
x[5] 1
x[6] 0
x[7] 0
x[8] 0
x[9] 1
x[10] 1
x[11] 1
x[12] 1
x[13] 0
x[14] 1
x[15] 0
x[16] 0
x[17] 1
x[18] 0
x[19] 0
x[20] 1
x[21] 1
x[22] 0
x[23] 0
x[24] 0
x[25] 1
x[26] 1
x[27] 0
x[28] 1
x[29] 1
x[30] 0
x[31] 1
x[32] 0
x[33] 0
x[34] 0
x[35] 1
x[36] 0
x[37] 1
x[38] 1
x[39] 0
x[40] 1
x[41] 1
x[42] 0
x[43] 1
x[44] 1
x[45] 1
x[46] 0
x[47] 1
x[48] 0
x[49] 1
x[50] 0
x[51] 1
x[52] 0
x[53] 1
x[54] 1
x[55] 1
x[56] 1
x[57] 0
x[58] 1
x[59] 1
x[60] 1
x[61] 1
x[62] 1
x[63] 0
x[64] 0
x[65] 1
x[66] 0
x[67] 1
x[68] 1
x[69] 0
x[70] 1
x[71] 0
x[72] 1
x[73] 1
x[74] 1
x[75] 1
x[76] 1
x[77] 1
x[78] 0
x[79] 1
x[80] 0
x[81] 1
x[82] 1
x[83] 1
x[84] 1
x[85] 1
x[86] 0
x[87] 0
x[88] 0
x[89] 0
x[90] 0
x[91] 0
x[92] 0
x[93] 0
x[94] 0
x[95] 0
x[96] 0
x[97] 0
x[98] 1
x[99] 1
x[100] 0
x[101] 1
x[102] 1
x[103] 0
x[104] 1
x[105] 0
x[106] 1
x[107] 1
x[108] 1
x[109] 1
x[110] 1
x[111] 1
x[112] 0
x[113] 1
x[114] 1
x[115] 1
x[116] 0
x[117] 0
x[118] 1
x[119] 0
x[120] 1
x[121] 1
x[122] 1
x[123] 1
x[124] 0
x[125] 1
x[126] 1
x[127] 1
x[128] 1
x[129] 1
x[130] 1
x[131] 1
x[132] 1
x[133] 0
x[134] 0
x[135] 1
x[136] 0
x[137] 1
x[138] 1
x[139] 0
x[140] 0
x[141] 0
x[142] 1
x[143] 0
x[144] 0
x[145] 0
x[146] 1
x[147] 1
x[148] 0
x[149] 0
x[150] 1
x[151] 1
x[152] 1
x[153] 0
x[154] 0
x[155] 0
x[156] 1
x[157] 0
x[158] 1
x[159] 0
x[160] 1
x[161] 1
x[162] 0
x[163] 1
x[164] 1
x[165] 0
x[166] 0
x[167] 0
x[168] 1
x[169] 0
x[170] 1
x[171] 1
x[172] 0
x[173] 0
x[174] 1
x[175] 0
x[176] 0
x[177] 1
x[178] 1
x[179] 0
x[180] 0
x[181] 1
x[182] 1
x[183] 1
x[184] 0
x[185] 0
x[186] 1
x[187] 1
x[188] 0
x[189] 1
x[190] 0
x[191] 1
x[192] 1
x[193] 1
x[194] 0
x[195] 0
x[196] 1
x[197] 1
x[198] 1
x[199] 1
x[200] 0
x[201] 1
x[202] 1
x[203] 1
x[204] 0
x[205] 1
x[206] 1
x[207] 0
x[208] 0
x[209] 0
x[210] 0
x[211] 1
x[212] 1
x[213] 0
x[214] 0
x[215] 0
x[216] 1
x[217] 1
x[218] 1
x[219] 0
x[220] 1
x[221] 1
x[222] 0
x[223] 0
x[224] 1
x[225] 0
x[226] 1
x[227] 1
x[228] 1
x[229] 1
x[230] 1
x[231] 1
x[232] 0
x[233] 1
x[234] 0
x[235] 1
x[236] 0
x[237] 0
x[238] 0
x[239] 0
x[240] 1
x[241] 1
x[242] 1
x[243] 1
x[244] 1
x[245] 1
x[246] 0
x[247] 1
x[248] 1
x[249] 1
x[250] 1
x[251] 1
x[252] 1
x[253] 1
x[254] 1
x[255] 1
x[256] 0
x[257] 1
x[258] 1
x[259] 1
x[260] 0
x[261] 1
x[262] 1
x[263] 1
x[264] 1
x[265] 1
x[266] 1
x[267] 1
x[268] 1
x[269] 1
x[270] 1
x[271] 0
x[272] 1
x[273] 0
x[274] 0
x[275] 0
x[276] 1
x[277] 1
x[278] 1
x[279] 1
x[280] 1
x[281] 1
x[282] 0
x[283] 0
x[284] 1
x[285] 1
x[286] 0
x[287] 0
x[288] 1
x[289] 1
x[290] 0
x[291] 0
x[292] 1
x[293] 1
x[294] 1
x[295] 0
x[296] 0
x[297] 1
x[298] 1
x[299] 1
x[300] 1
x[301] 1
x[302] 0
x[303] 1
x[304] 1
x[305] 0
x[306] 0
x[307] 0
x[308] 0
x[309] 1
x[310] 1
x[311] 1
x[312] 0
x[313] 1
x[314] 0
x[315] 1
x[316] 0
x[317] 0
x[318] 0
x[319] 1
x[320] 1
x[321] 0
x[322] 1
x[323] 1
x[324] 0
x[325] 1
x[326] 0
x[327] 1
x[328] 1
x[329] 1
x[330] 0
x[331] 0
x[332] 1
x[333] 1
x[334] 0
x[335] 1
x[336] 0
x[337] 1
x[338] 1
x[339] 1
x[340] 0
x[341] 1
x[342] 1
x[343] 1
x[344] 1
x[345] 1
x[346] 1
x[347] 0
x[348] 1
x[349] 1
x[350] 1
x[351] 0
x[352] 1
x[353] 0
x[354] 1
x[355] 1
x[356] 1
x[357] 1
x[358] 1
x[359] 0
x[360] 1
x[361] 1
x[362] 0
x[363] 0
x[364] 1
x[365] 0
x[366] 1
x[367] 0
x[368] 1
x[369] 1
x[370] 1
x[371] 1
x[372] 0
x[373] 1
x[374] 0
x[375] 1
x[376] 1
x[377] 1
x[378] 0
x[379] 1
x[380] 1
x[381] 0
x[382] 0
x[383] 0
x[384] 0
x[385] 0
x[386] 1
x[387] 1
x[388] 0
x[389] 1
x[390] 0
x[391] 1
x[392] 0
x[393] 1
x[394] 0
x[395] 0
x[396] 1
x[397] 1
x[398] 1
x[399] 1
x[400] 1
x[401] 0
x[402] 0
x[403] 1
x[404] 1
x[405] 1
x[406] 1
x[407] 1
x[408] 1
x[409] 1
x[410] 0
x[411] 1
x[412] 1
x[413] 1
x[414] 0
x[415] 1
x[416] 0
x[417] 1
x[418] 0
x[419] 0
x[420] 1
x[421] 0
x[422] 0
x[423] 0
x[424] 1
x[425] 1
x[426] 1
x[427] 1
x[428] 1
x[429] 1
x[430] 0
x[431] 0
x[432] 1
x[433] 0
x[434] 1
x[435] 0
x[436] 1
x[437] 0
x[438] 1
x[439] 0
x[440] 0
x[441] 1
x[442] 0
x[443] 1
x[444] 1
x[445] 1
x[446] 1
x[447] 1
x[448] 1
x[449] 1
x[450] 1
x[451] 1
x[452] 0
x[453] 1
x[454] 1
x[455] 0
x[456] 0
x[457] 0
x[458] 1
x[459] 1
x[460] 1
x[461] 1
x[462] 1
x[463] 0
x[464] 1
x[465] 0
x[466] 0
x[467] 0
x[468] 0
x[469] 1
x[470] 1
x[471] 1
x[472] 1
x[473] 1
x[474] 0
x[475] 1
x[476] 0
x[477] 1
x[478] 0
x[479] 1
x[480] 0
x[481] 1
x[482] 1
x[483] 1
x[484] 0
x[485] 1
x[486] 0
x[487] 1
x[488] 1
x[489] 0
x[490] 1
x[491] 0
x[492] 0
x[493] 1
x[494] 0
x[495] 1
x[496] 1
x[497] 1
x[498] 0
x[499] 0
x[500] 1
x[501] 1
x[502] 0
x[503] 0
x[504] 1
x[505] 0
x[506] 1
x[507] 1
x[508] 0
x[509] 1
x[510] 0
x[511] 1
x[512] 0
x[513] 1
x[514] 0
x[515] 1
x[516] 0
x[517] 0
x[518] 1
x[519] 1
x[520] 1
x[521] 1
x[522] 1
x[523] 0
x[524] 0
x[525] 0
x[526] 1
x[527] 1
x[528] 1
x[529] 1
x[530] 1
x[531] 1
x[532] 1
x[533] 0
x[534] 0
x[535] 1
x[536] 1
x[537] 0
x[538] 1
x[539] 0
x[540] 1
x[541] 0
x[542] 0
x[543] 1
x[544] 1
x[545] 1
x[546] 0
x[547] 0
x[548] 1
x[549] 1
x[550] 1
x[551] 1
x[552] 0
x[553] 0
x[554] 0
x[555] 1
x[556] 1
x[557] 1
x[558] 1
x[559] 0
x[560] 0
x[561] 0
x[562] 0
x[563] 1
x[564] 1
x[565] 1
x[566] 0
x[567] 1
x[568] 1
x[569] 1
x[570] 0
x[571] 1
x[572] 0
x[573] 0
x[574] 1
x[575] 1
x[576] 1
x[577] 0
x[578] 1
x[579] 0
x[580] 0
x[581] 1
x[582] 0
x[583] 0
x[584] 1
x[585] 0
x[586] 1
x[587] 1
x[588] 0
x[589] 0
x[590] 0
x[591] 0
x[592] 0
x[593] 0
x[594] 0
x[595] 1
x[596] 0
x[597] 1
x[598] 0
x[599] 1
x[600] 1
x[601] 0
x[602] 1
x[603] 0
x[604] 0
x[605] 1
x[606] 0
x[607] 1
x[608] 1
x[609] 1
x[610] 1
x[611] 1
x[612] 0
x[613] 0
x[614] 1
x[615] 1
x[616] 0
x[617] 1
x[618] 0
x[619] 1
x[620] 0
x[621] 1
x[622] 0
x[623] 1
x[624] 0
x[625] 0
x[626] 0
x[627] 0
x[628] 1
x[629] 0
x[630] 1
x[631] 1
x[632] 0
x[633] 1
x[634] 1
x[635] 0
x[636] 0
x[637] 0
x[638] 1
x[639] 1
x[640] 1
x[641] 1
x[642] 0
x[643] 0
x[644] 0
x[645] 1
x[646] 1
x[647] 1
x[648] 0
x[649] 0
x[650] 1
x[651] 0
x[652] 0
x[653] 1
x[654] 0
x[655] 0
x[656] 1
x[657] 0
x[658] 1
x[659] 0
x[660] 0
x[661] 1
x[662] 0
x[663] 1
x[664] 0
x[665] 1
x[666] 1
x[667] 1
x[668] 1
x[669] 1
x[670] 1
x[671] 0
x[672] 1
x[673] 0
x[674] 0
x[675] 0
x[676] 0
x[677] 1
x[678] 0
x[679] 0
x[680] 0
x[681] 1
x[682] 0
x[683] 1
x[684] 1
x[685] 0
x[686] 0
x[687] 1
x[688] 0
x[689] 0
x[690] 0
x[691] 0
x[692] 1
x[693] 0
x[694] 0
x[695] 1
x[696] 0
x[697] 0
x[698] 1
x[699] 1
x[700] 1
x[701] 0
x[702] 1
x[703] 1
x[704] 1
x[705] 0
x[706] 1
x[707] 0
x[708] 1
x[709] 0
x[710] 0
x[711] 0
x[712] 1
x[713] 1
x[714] 1
x[715] 1
x[716] 1
x[717] 0
x[718] 1
x[719] 0
x[720] 0
x[721] 0
x[722] 0
x[723] 1
x[724] 1
x[725] 0
x[726] 1
x[727] 1
x[728] 0
x[729] 0
x[730] 1
x[731] 1
x[732] 0
x[733] 0
x[734] 1
x[735] 1
x[736] 0
x[737] 1
x[738] 1
x[739] 1
x[740] 0
x[741] 0
x[742] 1
x[743] 0
x[744] 0
x[745] 1
x[746] 1
x[747] 1
x[748] 1
x[749] 1
x[750] 1
x[751] 1
x[752] 1
x[753] 0
x[754] 0
x[755] 0
x[756] 1
x[757] 1
x[758] 0
x[759] 0
x[760] 0
x[761] 1
x[762] 1
x[763] 1
x[764] 0
x[765] 0
x[766] 1
x[767] 1
x[768] 0
x[769] 1
x[770] 0
x[771] 1
x[772] 1
x[773] 1
x[774] 0
x[775] 0
x[776] 0
x[777] 0
x[778] 0
x[779] 0
x[780] 1
x[781] 1
x[782] 1
x[783] 0
x[784] 1
x[785] 0
x[786] 0
x[787] 1
x[788] 0
x[789] 0
x[790] 0
x[791] 0
x[792] 1
x[793] 1
x[794] 1
x[795] 0
x[796] 1
x[797] 0
x[798] 1
x[799] 0
x[800] 1
x[801] 0
x[802] 0
x[803] 1
x[804] 1
x[805] 1
x[806] 0
x[807] 1
x[808] 1
x[809] 1
x[810] 0
x[811] 0
x[812] 0
x[813] 0
x[814] 0
x[815] 1
x[816] 0
x[817] 1
x[818] 0
x[819] 0
x[820] 1
x[821] 1
x[822] 1
x[823] 0
x[824] 1
x[825] 1
x[826] 1
x[827] 0
x[828] 0
x[829] 1
x[830] 1
x[831] 0
x[832] 1
x[833] 0
x[834] 1
x[835] 0
x[836] 1
x[837] 0
x[838] 1
x[839] 1
x[840] 1
x[841] 0
x[842] 1
x[843] 0
x[844] 0
x[845] 0
x[846] 0
x[847] 0
x[848] 0
x[849] 0
x[850] 0
x[851] 1
x[852] 0
x[853] 1
x[854] 0
x[855] 0
x[856] 1
x[857] 0
x[858] 1
x[859] 0
x[860] 0
x[861] 1
x[862] 1
x[863] 0
x[864] 0
x[865] 0
x[866] 1
x[867] 0
x[868] 0
x[869] 0
x[870] 0
x[871] 1
x[872] 0
x[873] 1
x[874] 0
x[875] 1
x[876] 1
x[877] 1
x[878] 1
x[879] 1
x[880] 0
x[881] 1
x[882] 0
x[883] 1
x[884] 1
x[885] 1
x[886] 0
x[887] 1
x[888] 0
x[889] 1
x[890] 0
x[891] 1
x[892] 1
x[893] 1
x[894] 0
x[895] 0
x[896] 1
x[897] 0
x[898] 0
x[899] 1
x[900] 1
x[901] 1
x[902] 0
x[903] 1
x[904] 1
x[905] 1
x[906] 1
x[907] 1
x[908] 1
x[909] 0
x[910] 1
x[911] 1
x[912] 1
x[913] 1
x[914] 1
x[915] 1
x[916] 1
x[917] 1
x[918] 1
x[919] 1
x[920] 1
x[921] 1
x[922] 1
x[923] 1
x[924] 1
x[925] 0
x[926] 1
x[927] 1
x[928] 0
x[929] 1
x[930] 0
x[931] 0
x[932] 1
x[933] 1
x[934] 0
x[935] 0
x[936] 0
x[937] 1
x[938] 1
x[939] 0
x[940] 0
x[941] 0
x[942] 1
x[943] 1
x[944] 1
x[945] 1
x[946] 0
x[947] 0
x[948] 0
x[949] 0
x[950] 0
x[951] 1
x[952] 0
x[953] 1
x[954] 1
x[955] 1
x[956] 0
x[957] 0
x[958] 0
x[959] 0
x[960] 0
x[961] 1
x[962] 1
x[963] 1
x[964] 1
x[965] 1
x[966] 0
x[967] 1
x[968] 1
x[969] 0
x[970] 1
x[971] 0
x[972] 0
x[973] 0
x[974] 1
x[975] 0
x[976] 1
x[977] 0
x[978] 1
x[979] 1
x[980] 1
x[981] 1
x[982] 1
x[983] 0
x[984] 1
x[985] 0
x[986] 1
x[987] 0
x[988] 1
x[989] 0
x[990] 1
x[991] 1
x[992] 1
x[993] 1
x[994] 1
x[995] 1
x[996] 0
x[997] 1
x[998] 1
x[999] 0
